(declare-const |phi_main__y:18:86:455:524| Int)
(declare-const |phi_main__y:17:85:456:525| Int)
(declare-const |phi_main__y:63:131:410:479| Int)
(declare-const |phi_main__y:14:82:459:528| Int)
(declare-const |K:393:394:462:531| Int)
(declare-const |phi_main__y:40:108:433:502| Int)
(declare-const |phi_main__y:41:109:432:501| Int)
(declare-const |phi_main__y:66:134:407:476| Int)
(declare-const |phi_main__y:70:138:403:472| Int)
(declare-const |main__x':388:395:463:532| Int)
(declare-const |phi_main__y:71:139:402:471| Int)
(declare-const |phi_main__y:68:136:405:474| Int)
(declare-const |phi_main__y:75:143:398:467| Int)
(declare-const |phi_main__y:23:91:450:519| Int)
(declare-const |phi_main__y:74:142:399:468| Int)
(declare-const |phi_main__y:65:133:408:477| Int)
(declare-const |phi_main__y:13:81:460:529| Int)
(declare-const |phi_main__y:60:128:413:482| Int)
(declare-const |phi_main__y:22:90:451:520| Int)
(declare-const |phi_main__y:39:107:434:503| Int)
(declare-const |phi_main__y:35:103:438:507| Int)
(declare-const |phi_main__y:29:97:444:513| Int)
(declare-const |phi_main__y:72:140:401:470| Int)
(declare-const |phi_main__y:19:87:454:523| Int)
(declare-const |phi_main__y:73:141:400:469| Int)
(declare-const |phi_main__y:12:80:461:530| Int)
(declare-const |phi_main__y:25:93:448:517| Int)
(declare-const |phi_main__y:43:111:430:499| Int)
(declare-const |phi_main__y:57:125:416:485| Int)
(declare-const |phi_main__y:31:99:442:511| Int)
(declare-const |phi_main__y:33:101:440:509| Int)
(declare-const |phi_main__y:64:132:409:478| Int)
(declare-const |phi_main__y:55:123:418:487| Int)
(declare-const |main__y':389:396:464:533| Int)
(declare-const |phi_main__y:15:83:458:527| Int)
(declare-const |phi_main__y:45:113:428:497| Int)
(declare-const |phi_main__y:26:94:447:516| Int)
(declare-const |phi_main__y:76:144:397:466| Int)
(declare-const |phi_main__y:28:96:445:514| Int)
(declare-const |phi_main__y:37:105:436:505| Int)
(declare-const |phi_main__y:30:98:443:512| Int)
(declare-const |phi_main__y:46:114:427:496| Int)
(declare-const |phi_main__y:38:106:435:504| Int)
(declare-const |phi_main__y:36:104:437:506| Int)
(declare-const |phi_main__y:67:135:406:475| Int)
(declare-const |phi_main__y:51:119:422:491| Int)
(declare-const |phi_main__y:59:127:414:483| Int)
(declare-const |phi_main__y:52:120:421:490| Int)
(declare-const |phi_main__y:44:112:429:498| Int)
(declare-const |phi_main__y:42:110:431:500| Int)
(declare-const |phi_main__y:54:122:419:488| Int)
(declare-const |phi_main__y:20:88:453:522| Int)
(declare-const |phi_main__y:77:145:465| Int)
(declare-const |phi_main__y:69:137:404:473| Int)
(declare-const |phi_main__y:56:124:417:486| Int)
(declare-const |phi_main__y:58:126:415:484| Int)
(declare-const |phi_main__y:78:146| Int)
(declare-const |phi_main__y:34:102:439:508| Int)
(declare-const |phi_main__y:61:129:412:481| Int)
(declare-const |phi_main__y:47:115:426:495| Int)
(declare-const |phi_main__y:21:89:452:521| Int)
(declare-const |phi_main__y:48:116:425:494| Int)
(declare-const |phi_main__y:16:84:457:526| Int)
(declare-const |phi_main__y:32:100:441:510| Int)
(declare-const |phi_main__y:50:118:423:492| Int)
(declare-const |phi_main__y:62:130:411:480| Int)
(declare-const |phi_main__y:49:117:424:493| Int)
(declare-const |phi_main__y:27:95:446:515| Int)
(declare-const |phi_main__y:53:121:420:489| Int)
(declare-const |phi_main__y:24:92:449:518| Int)
(assert (and (= (+ (- |phi_main__y:78:146|) 50) 0)
               (= (+ (- |phi_main__y:77:145:465|) |phi_main__y:78:146|) 0)
               (= (+ (- |phi_main__y:76:144:397:466|)
                       |phi_main__y:77:145:465|) 0)
               (= (+ (- |phi_main__y:75:143:398:467|)
                       |phi_main__y:76:144:397:466|) 0)
               (= (+ (- |phi_main__y:74:142:399:468|)
                       |phi_main__y:75:143:398:467|) 0)
               (= (+ (- |phi_main__y:73:141:400:469|)
                       |phi_main__y:74:142:399:468|) 0)
               (= (+ (- |phi_main__y:72:140:401:470|)
                       |phi_main__y:73:141:400:469|) 0)
               (= (+ (- |phi_main__y:71:139:402:471|)
                       |phi_main__y:72:140:401:470|) 0)
               (= (+ (- |phi_main__y:70:138:403:472|)
                       |phi_main__y:71:139:402:471|) 0)
               (= (+ (- |phi_main__y:69:137:404:473|)
                       |phi_main__y:70:138:403:472|) 0)
               (= (+ (- |phi_main__y:68:136:405:474|)
                       |phi_main__y:69:137:404:473|) 0)
               (= (+ (- |phi_main__y:67:135:406:475|)
                       |phi_main__y:68:136:405:474|) 0)
               (= (+ (- |phi_main__y:66:134:407:476|)
                       |phi_main__y:67:135:406:475|) 0)
               (= (+ (- |phi_main__y:65:133:408:477|)
                       |phi_main__y:66:134:407:476|) 0)
               (= (+ (- |phi_main__y:64:132:409:478|)
                       |phi_main__y:65:133:408:477|) 0)
               (= (+ (- |phi_main__y:63:131:410:479|)
                       |phi_main__y:64:132:409:478|) 0)
               (= (+ (- |phi_main__y:62:130:411:480|)
                       |phi_main__y:63:131:410:479|) 0)
               (= (+ (- |phi_main__y:61:129:412:481|)
                       |phi_main__y:62:130:411:480|) 0)
               (= (+ (- |phi_main__y:60:128:413:482|)
                       |phi_main__y:61:129:412:481|) 0)
               (= (+ (- |phi_main__y:59:127:414:483|)
                       |phi_main__y:60:128:413:482|) 0)
               (= (+ (- |phi_main__y:58:126:415:484|)
                       |phi_main__y:59:127:414:483|) 0)
               (= (+ (- |phi_main__y:57:125:416:485|)
                       |phi_main__y:58:126:415:484|) 0)
               (= (+ (- |phi_main__y:56:124:417:486|)
                       |phi_main__y:57:125:416:485|) 0)
               (= (+ (- |phi_main__y:55:123:418:487|)
                       |phi_main__y:56:124:417:486|) 0)
               (= (+ (- |phi_main__y:54:122:419:488|)
                       |phi_main__y:55:123:418:487|) 0)
               (= (+ (- |phi_main__y:53:121:420:489|)
                       |phi_main__y:54:122:419:488|) 0)
               (= (+ (- |phi_main__y:52:120:421:490|)
                       |phi_main__y:53:121:420:489|) 0)
               (= (+ (- |phi_main__y:51:119:422:491|)
                       |phi_main__y:52:120:421:490|) 0)
               (= (+ (- |phi_main__y:50:118:423:492|)
                       |phi_main__y:51:119:422:491|) 0)
               (= (+ (- |phi_main__y:49:117:424:493|)
                       |phi_main__y:50:118:423:492|) 0)
               (= (+ (- |phi_main__y:48:116:425:494|)
                       |phi_main__y:49:117:424:493|) 0)
               (= (+ (- |phi_main__y:47:115:426:495|)
                       |phi_main__y:48:116:425:494|) 0)
               (= (+ (- |phi_main__y:46:114:427:496|)
                       |phi_main__y:47:115:426:495|) 0)
               (= (+ (- |phi_main__y:45:113:428:497|)
                       |phi_main__y:46:114:427:496|) 0)
               (= (+ (- |phi_main__y:44:112:429:498|)
                       |phi_main__y:45:113:428:497|) 0)
               (= (+ (- |phi_main__y:43:111:430:499|)
                       |phi_main__y:44:112:429:498|) 0)
               (= (+ (- |phi_main__y:42:110:431:500|)
                       |phi_main__y:43:111:430:499|) 0)
               (= (+ (- |phi_main__y:41:109:432:501|)
                       |phi_main__y:42:110:431:500|) 0)
               (= (+ (- |phi_main__y:40:108:433:502|)
                       |phi_main__y:41:109:432:501|) 0)
               (= (+ (- |phi_main__y:39:107:434:503|)
                       |phi_main__y:40:108:433:502|) 0)
               (= (+ (- |phi_main__y:38:106:435:504|)
                       |phi_main__y:39:107:434:503|) 0)
               (= (+ (- |phi_main__y:37:105:436:505|)
                       |phi_main__y:38:106:435:504|) 0)
               (= (+ (- |phi_main__y:36:104:437:506|)
                       |phi_main__y:37:105:436:505|) 0)
               (= (+ (- |phi_main__y:35:103:438:507|)
                       |phi_main__y:36:104:437:506|) 0)
               (= (+ (- |phi_main__y:34:102:439:508|)
                       |phi_main__y:35:103:438:507|) 0)
               (= (+ (- |phi_main__y:33:101:440:509|)
                       |phi_main__y:34:102:439:508|) 0)
               (= (+ (- |phi_main__y:32:100:441:510|)
                       |phi_main__y:33:101:440:509|) 0)
               (= (+ (- |phi_main__y:31:99:442:511|)
                       |phi_main__y:32:100:441:510|) 0)
               (= (+ (- |phi_main__y:30:98:443:512|)
                       |phi_main__y:31:99:442:511|) 0)
               (= (+ (- |phi_main__y:29:97:444:513|)
                       |phi_main__y:30:98:443:512|) 0)
               (= (+ (- |phi_main__y:28:96:445:514|)
                       |phi_main__y:29:97:444:513| 1) 0)
               (= (+ (- |phi_main__y:27:95:446:515|)
                       |phi_main__y:28:96:445:514| 1) 0)
               (= (+ (- |phi_main__y:26:94:447:516|)
                       |phi_main__y:27:95:446:515| 1) 0)
               (= (+ (- |phi_main__y:25:93:448:517|)
                       |phi_main__y:26:94:447:516| 1) 0)
               (= (+ (- |phi_main__y:24:92:449:518|)
                       |phi_main__y:25:93:448:517| 1) 0)
               (= (+ (- |phi_main__y:23:91:450:519|)
                       |phi_main__y:24:92:449:518| 1) 0)
               (= (+ (- |phi_main__y:22:90:451:520|)
                       |phi_main__y:23:91:450:519| 1) 0)
               (= (+ (- |phi_main__y:21:89:452:521|)
                       |phi_main__y:22:90:451:520| 1) 0)
               (= (+ (- |phi_main__y:20:88:453:522|)
                       |phi_main__y:21:89:452:521| 1) 0)
               (= (+ (- |phi_main__y:19:87:454:523|)
                       |phi_main__y:20:88:453:522| 1) 0)
               (= (+ (- |phi_main__y:18:86:455:524|)
                       |phi_main__y:19:87:454:523| 1) 0)
               (= (+ (- |phi_main__y:17:85:456:525|)
                       |phi_main__y:18:86:455:524| 1) 0)
               (= (+ (- |phi_main__y:16:84:457:526|)
                       |phi_main__y:17:85:456:525| 1) 0)
               (= (+ (- |phi_main__y:15:83:458:527|)
                       |phi_main__y:16:84:457:526| 1) 0)
               (= (+ (- |phi_main__y:14:82:459:528|)
                       |phi_main__y:15:83:458:527| 1) 0)
               (= (+ (- |phi_main__y:13:81:460:529|)
                       |phi_main__y:14:82:459:528| 1) 0)
               (= (+ (- |phi_main__y:12:80:461:530|)
                       |phi_main__y:13:81:460:529| 1) 0)
               (or (not (<= (- |K:393:394:462:531|) 0))
                     (= (+ |main__x':388:395:463:532| (- |K:393:394:462:531|)
                             -67) 0))
               (or (not (<= (- |K:393:394:462:531|) 0))
                     (<= (+ (* -100 |main__y':389:396:464:533|)
                              (* |K:393:394:462:531| |K:393:394:462:531|)
                              (* 35 |K:393:394:462:531|)
                              (* 100 |phi_main__y:12:80:461:530|)) 0))
               (or (not (<= (- |K:393:394:462:531|) 0))
                     (<= (+ |main__y':389:396:464:533|
                              (- |K:393:394:462:531|)
                              (- |phi_main__y:12:80:461:530|)) 0))
               (or (not (<= (- |K:393:394:462:531|) 0))
                     (<= (+ (- |main__y':389:396:464:533|)
                              |phi_main__y:12:80:461:530|) 0))
               (or (not (<= (- |K:393:394:462:531|) 0))
                     (<= (+ (* 98 |main__y':389:396:464:533|)
                              (- (* |K:393:394:462:531| |K:393:394:462:531|))
                              (* -131 |K:393:394:462:531|)
                              (* -98 |phi_main__y:12:80:461:530|)) 0))
               (or (and (= |K:393:394:462:531| 0)
                          (= (+ (- |main__y':389:396:464:533|)
                                  |phi_main__y:12:80:461:530|) 0)
                          (= (+ (- |main__x':388:395:463:532|) 67) 0))
                     (and (<= (+ (- |K:393:394:462:531|) 1) 0)
                            (<= (+ (- |phi_main__y:12:80:461:530|) 1) 0)
                            (<= (+ |main__x':388:395:463:532| -100) 0)
                            (<= (+ (* -50 |main__y':389:396:464:533|)
                                     |main__x':388:395:463:532|) 0)
                            (<= (+ (- |main__y':389:396:464:533|) 1) 0)
                            (<= (+ (- |main__x':388:395:463:532|) 2) 0)))
               (<= (- |K:393:394:462:531|) 0)
               (< (- |main__y':389:396:464:533|) 0)
               (< (- |main__x':388:395:463:532|) 0)
               (<= (+ (- |main__x':388:395:463:532|) 100) 0)
               (= (ite (= (+ |main__y':389:396:464:533| -100) 0) 1 0) 0)))
(check-sat)
